p tw 480 1984
1 33
2 34
3 35
4 36
5 37
6 38
7 39
8 40
9 41
10 42
11 43
12 44
13 45
14 46
15 47
16 48
17 49
18 50
19 51
20 52
21 53
22 54
23 55
24 56
25 57
26 58
27 59
28 60
29 61
30 62
31 63
32 64
33 117
33 118
33 119
33 120
33 121
34 90
34 97
34 135
34 158
34 160
35 75
35 103
35 104
35 105
35 106
36 68
36 107
36 111
36 112
36 113
37 88
37 117
37 129
37 132
37 133
38 66
38 88
38 89
38 90
38 91
39 112
39 127
39 140
39 154
39 157
40 93
40 130
40 143
40 151
40 153
41 99
41 103
41 114
41 115
41 116
42 79
42 80
42 81
42 82
42 83
43 70
43 75
43 76
43 77
43 78
44 70
44 71
44 72
44 73
44 74
45 86
45 120
45 124
45 145
45 148
46 79
46 92
46 93
46 94
46 95
47 76
47 105
47 118
47 138
47 139
48 82
48 100
48 129
48 130
48 131
49 73
49 138
49 145
49 146
49 147
50 125
50 142
50 146
50 151
50 152
51 94
51 149
51 154
51 155
51 156
52 80
52 99
52 100
52 101
52 102
53 65
53 66
53 67
53 68
53 69
54 85
54 92
54 114
54 134
54 137
55 81
55 84
55 122
55 127
55 128
56 77
56 96
56 132
56 149
56 150
57 67
57 71
57 96
57 97
57 98
58 104
58 108
58 134
58 135
58 136
59 122
59 123
59 124
59 125
59 126
60 89
60 101
60 111
60 140
60 141
61 109
61 115
61 155
61 158
61 159
62 119
62 123
62 142
62 143
62 144
63 65
63 84
63 85
63 86
63 87
64 72
64 107
64 108
64 109
64 110
65 66
65 67
65 68
65 69
65 84
65 85
65 86
65 87
66 67
66 68
66 69
66 88
66 89
66 90
66 91
67 68
67 69
67 71
67 96
67 97
67 98
68 69
68 107
68 111
68 112
68 113
69 161
69 162
69 163
69 164
69 165
70 71
70 72
70 73
70 74
70 75
70 76
70 77
70 78
71 72
71 73
71 74
71 96
71 97
71 98
72 73
72 74
72 107
72 108
72 109
72 110
73 74
73 138
73 145
73 146
73 147
74 166
74 167
74 168
74 169
74 170
75 76
75 77
75 78
75 103
75 104
75 105
75 106
76 77
76 78
76 105
76 118
76 138
76 139
77 78
77 96
77 132
77 149
77 150
78 166
78 171
78 172
78 173
78 174
79 80
79 81
79 82
79 83
79 92
79 93
79 94
79 95
80 81
80 82
80 83
80 99
80 100
80 101
80 102
81 82
81 83
81 84
81 122
81 127
81 128
82 83
82 100
82 129
82 130
82 131
83 175
83 176
83 177
83 178
83 179
84 85
84 86
84 87
84 122
84 127
84 128
85 86
85 87
85 92
85 114
85 134
85 137
86 87
86 120
86 124
86 145
86 148
87 161
87 180
87 181
87 182
87 183
88 89
88 90
88 91
88 117
88 129
88 132
88 133
89 90
89 91
89 101
89 111
89 140
89 141
90 91
90 97
90 135
90 158
90 160
91 162
91 184
91 185
91 186
91 187
92 93
92 94
92 95
92 114
92 134
92 137
93 94
93 95
93 130
93 143
93 151
93 153
94 95
94 149
94 154
94 155
94 156
95 175
95 188
95 189
95 190
95 191
96 97
96 98
96 132
96 149
96 150
97 98
97 135
97 158
97 160
98 163
98 167
98 192
98 193
98 194
99 100
99 101
99 102
99 103
99 114
99 115
99 116
100 101
100 102
100 129
100 130
100 131
101 102
101 111
101 140
101 141
102 176
102 195
102 196
102 197
102 198
103 104
103 105
103 106
103 114
103 115
103 116
104 105
104 106
104 108
104 134
104 135
104 136
105 106
105 118
105 138
105 139
106 171
106 199
106 200
106 201
106 202
107 108
107 109
107 110
107 111
107 112
107 113
108 109
108 110
108 134
108 135
108 136
109 110
109 115
109 155
109 158
109 159
110 168
110 203
110 204
110 205
110 206
111 112
111 113
111 140
111 141
112 113
112 127
112 140
112 154
112 157
113 164
113 203
113 207
113 208
113 209
114 115
114 116
114 134
114 137
115 116
115 155
115 158
115 159
116 195
116 199
116 210
116 211
116 212
117 118
117 119
117 120
117 121
117 129
117 132
117 133
118 119
118 120
118 121
118 138
118 139
119 120
119 121
119 123
119 142
119 143
119 144
120 121
120 124
120 145
120 148
121 213
121 214
121 215
121 216
121 217
122 123
122 124
122 125
122 126
122 127
122 128
123 124
123 125
123 126
123 142
123 143
123 144
124 125
124 126
124 145
124 148
125 126
125 142
125 146
125 151
125 152
126 218
126 219
126 220
126 221
126 222
127 128
127 140
127 154
127 157
128 177
128 180
128 218
128 223
128 224
129 130
129 131
129 132
129 133
130 131
130 143
130 151
130 153
131 178
131 196
131 225
131 226
131 227
132 133
132 149
132 150
133 184
133 213
133 225
133 228
133 229
134 135
134 136
134 137
135 136
135 158
135 160
136 200
136 204
136 230
136 231
136 232
137 181
137 188
137 210
137 230
137 233
138 139
138 145
138 146
138 147
139 172
139 201
139 214
139 234
139 235
140 141
140 154
140 157
141 185
141 197
141 207
141 236
141 237
142 143
142 144
142 146
142 151
142 152
143 144
143 151
143 153
144 215
144 219
144 238
144 239
144 240
145 146
145 147
145 148
146 147
146 151
146 152
147 169
147 234
147 241
147 242
147 243
148 182
148 216
148 220
148 241
148 244
149 150
149 154
149 155
149 156
150 173
150 192
150 228
150 245
150 246
151 152
151 153
152 221
152 238
152 242
152 247
152 248
153 189
153 226
153 239
153 247
153 249
154 155
154 156
154 157
155 156
155 158
155 159
156 190
156 245
156 250
156 251
156 252
157 208
157 223
157 236
157 250
157 253
158 159
158 160
159 205
159 211
159 251
159 254
159 255
160 186
160 193
160 231
160 254
160 256
161 162
161 163
161 164
161 165
161 180
161 181
161 182
161 183
162 163
162 164
162 165
162 184
162 185
162 186
162 187
163 164
163 165
163 167
163 192
163 193
163 194
164 165
164 203
164 207
164 208
164 209
165 257
165 258
165 259
165 260
165 261
166 167
166 168
166 169
166 170
166 171
166 172
166 173
166 174
167 168
167 169
167 170
167 192
167 193
167 194
168 169
168 170
168 203
168 204
168 205
168 206
169 170
169 234
169 241
169 242
169 243
170 262
170 263
170 264
170 265
170 266
171 172
171 173
171 174
171 199
171 200
171 201
171 202
172 173
172 174
172 201
172 214
172 234
172 235
173 174
173 192
173 228
173 245
173 246
174 262
174 267
174 268
174 269
174 270
175 176
175 177
175 178
175 179
175 188
175 189
175 190
175 191
176 177
176 178
176 179
176 195
176 196
176 197
176 198
177 178
177 179
177 180
177 218
177 223
177 224
178 179
178 196
178 225
178 226
178 227
179 271
179 272
179 273
179 274
179 275
180 181
180 182
180 183
180 218
180 223
180 224
181 182
181 183
181 188
181 210
181 230
181 233
182 183
182 216
182 220
182 241
182 244
183 257
183 276
183 277
183 278
183 279
184 185
184 186
184 187
184 213
184 225
184 228
184 229
185 186
185 187
185 197
185 207
185 236
185 237
186 187
186 193
186 231
186 254
186 256
187 258
187 280
187 281
187 282
187 283
188 189
188 190
188 191
188 210
188 230
188 233
189 190
189 191
189 226
189 239
189 247
189 249
190 191
190 245
190 250
190 251
190 252
191 271
191 284
191 285
191 286
191 287
192 193
192 194
192 228
192 245
192 246
193 194
193 231
193 254
193 256
194 259
194 263
194 288
194 289
194 290
195 196
195 197
195 198
195 199
195 210
195 211
195 212
196 197
196 198
196 225
196 226
196 227
197 198
197 207
197 236
197 237
198 272
198 291
198 292
198 293
198 294
199 200
199 201
199 202
199 210
199 211
199 212
200 201
200 202
200 204
200 230
200 231
200 232
201 202
201 214
201 234
201 235
202 267
202 295
202 296
202 297
202 298
203 204
203 205
203 206
203 207
203 208
203 209
204 205
204 206
204 230
204 231
204 232
205 206
205 211
205 251
205 254
205 255
206 264
206 299
206 300
206 301
206 302
207 208
207 209
207 236
207 237
208 209
208 223
208 236
208 250
208 253
209 260
209 299
209 303
209 304
209 305
210 211
210 212
210 230
210 233
211 212
211 251
211 254
211 255
212 291
212 295
212 306
212 307
212 308
213 214
213 215
213 216
213 217
213 225
213 228
213 229
214 215
214 216
214 217
214 234
214 235
215 216
215 217
215 219
215 238
215 239
215 240
216 217
216 220
216 241
216 244
217 309
217 310
217 311
217 312
217 313
218 219
218 220
218 221
218 222
218 223
218 224
219 220
219 221
219 222
219 238
219 239
219 240
220 221
220 222
220 241
220 244
221 222
221 238
221 242
221 247
221 248
222 314
222 315
222 316
222 317
222 318
223 224
223 236
223 250
223 253
224 273
224 276
224 314
224 319
224 320
225 226
225 227
225 228
225 229
226 227
226 239
226 247
226 249
227 274
227 292
227 321
227 322
227 323
228 229
228 245
228 246
229 280
229 309
229 321
229 324
229 325
230 231
230 232
230 233
231 232
231 254
231 256
232 296
232 300
232 326
232 327
232 328
233 277
233 284
233 306
233 326
233 329
234 235
234 241
234 242
234 243
235 268
235 297
235 310
235 330
235 331
236 237
236 250
236 253
237 281
237 293
237 303
237 332
237 333
238 239
238 240
238 242
238 247
238 248
239 240
239 247
239 249
240 311
240 315
240 334
240 335
240 336
241 242
241 243
241 244
242 243
242 247
242 248
243 265
243 330
243 337
243 338
243 339
244 278
244 312
244 316
244 337
244 340
245 246
245 250
245 251
245 252
246 269
246 288
246 324
246 341
246 342
247 248
247 249
248 317
248 334
248 338
248 343
248 344
249 285
249 322
249 335
249 343
249 345
250 251
250 252
250 253
251 252
251 254
251 255
252 286
252 341
252 346
252 347
252 348
253 304
253 319
253 332
253 346
253 349
254 255
254 256
255 301
255 307
255 347
255 350
255 351
256 282
256 289
256 327
256 350
256 352
257 258
257 259
257 260
257 261
257 276
257 277
257 278
257 279
258 259
258 260
258 261
258 280
258 281
258 282
258 283
259 260
259 261
259 263
259 288
259 289
259 290
260 261
260 299
260 303
260 304
260 305
261 353
261 354
261 355
261 356
261 357
262 263
262 264
262 265
262 266
262 267
262 268
262 269
262 270
263 264
263 265
263 266
263 288
263 289
263 290
264 265
264 266
264 299
264 300
264 301
264 302
265 266
265 330
265 337
265 338
265 339
266 358
266 359
266 360
266 361
266 362
267 268
267 269
267 270
267 295
267 296
267 297
267 298
268 269
268 270
268 297
268 310
268 330
268 331
269 270
269 288
269 324
269 341
269 342
270 358
270 363
270 364
270 365
270 366
271 272
271 273
271 274
271 275
271 284
271 285
271 286
271 287
272 273
272 274
272 275
272 291
272 292
272 293
272 294
273 274
273 275
273 276
273 314
273 319
273 320
274 275
274 292
274 321
274 322
274 323
275 367
275 368
275 369
275 370
275 371
276 277
276 278
276 279
276 314
276 319
276 320
277 278
277 279
277 284
277 306
277 326
277 329
278 279
278 312
278 316
278 337
278 340
279 353
279 372
279 373
279 374
279 375
280 281
280 282
280 283
280 309
280 321
280 324
280 325
281 282
281 283
281 293
281 303
281 332
281 333
282 283
282 289
282 327
282 350
282 352
283 354
283 376
283 377
283 378
283 379
284 285
284 286
284 287
284 306
284 326
284 329
285 286
285 287
285 322
285 335
285 343
285 345
286 287
286 341
286 346
286 347
286 348
287 367
287 380
287 381
287 382
287 383
288 289
288 290
288 324
288 341
288 342
289 290
289 327
289 350
289 352
290 355
290 359
290 384
290 385
290 386
291 292
291 293
291 294
291 295
291 306
291 307
291 308
292 293
292 294
292 321
292 322
292 323
293 294
293 303
293 332
293 333
294 368
294 387
294 388
294 389
294 390
295 296
295 297
295 298
295 306
295 307
295 308
296 297
296 298
296 300
296 326
296 327
296 328
297 298
297 310
297 330
297 331
298 363
298 391
298 392
298 393
298 394
299 300
299 301
299 302
299 303
299 304
299 305
300 301
300 302
300 326
300 327
300 328
301 302
301 307
301 347
301 350
301 351
302 360
302 395
302 396
302 397
302 398
303 304
303 305
303 332
303 333
304 305
304 319
304 332
304 346
304 349
305 356
305 395
305 399
305 400
305 401
306 307
306 308
306 326
306 329
307 308
307 347
307 350
307 351
308 387
308 391
308 402
308 403
308 404
309 310
309 311
309 312
309 313
309 321
309 324
309 325
310 311
310 312
310 313
310 330
310 331
311 312
311 313
311 315
311 334
311 335
311 336
312 313
312 316
312 337
312 340
313 405
313 406
313 407
313 408
313 409
314 315
314 316
314 317
314 318
314 319
314 320
315 316
315 317
315 318
315 334
315 335
315 336
316 317
316 318
316 337
316 340
317 318
317 334
317 338
317 343
317 344
318 410
318 411
318 412
318 413
318 414
319 320
319 332
319 346
319 349
320 369
320 372
320 410
320 415
320 416
321 322
321 323
321 324
321 325
322 323
322 335
322 343
322 345
323 370
323 388
323 417
323 418
323 419
324 325
324 341
324 342
325 376
325 405
325 417
325 420
325 421
326 327
326 328
326 329
327 328
327 350
327 352
328 392
328 396
328 422
328 423
328 424
329 373
329 380
329 402
329 422
329 425
330 331
330 337
330 338
330 339
331 364
331 393
331 406
331 426
331 427
332 333
332 346
332 349
333 377
333 389
333 399
333 428
333 429
334 335
334 336
334 338
334 343
334 344
335 336
335 343
335 345
336 407
336 411
336 430
336 431
336 432
337 338
337 339
337 340
338 339
338 343
338 344
339 361
339 426
339 433
339 434
339 435
340 374
340 408
340 412
340 433
340 436
341 342
341 346
341 347
341 348
342 365
342 384
342 420
342 437
342 438
343 344
343 345
344 413
344 430
344 434
344 439
344 440
345 381
345 418
345 431
345 439
345 441
346 347
346 348
346 349
347 348
347 350
347 351
348 382
348 437
348 442
348 443
348 444
349 400
349 415
349 428
349 442
349 445
350 351
350 352
351 397
351 403
351 443
351 446
351 447
352 378
352 385
352 423
352 446
352 448
353 354
353 355
353 356
353 357
353 372
353 373
353 374
353 375
354 355
354 356
354 357
354 376
354 377
354 378
354 379
355 356
355 357
355 359
355 384
355 385
355 386
356 357
356 395
356 399
356 400
356 401
357 460
358 359
358 360
358 361
358 362
358 363
358 364
358 365
358 366
359 360
359 361
359 362
359 384
359 385
359 386
360 361
360 362
360 395
360 396
360 397
360 398
361 362
361 426
361 433
361 434
361 435
362 469
363 364
363 365
363 366
363 391
363 392
363 393
363 394
364 365
364 366
364 393
364 406
364 426
364 427
365 366
365 384
365 420
365 437
365 438
366 470
367 368
367 369
367 370
367 371
367 380
367 381
367 382
367 383
368 369
368 370
368 371
368 387
368 388
368 389
368 390
369 370
369 371
369 372
369 410
369 415
369 416
370 371
370 388
370 417
370 418
370 419
371 471
372 373
372 374
372 375
372 410
372 415
372 416
373 374
373 375
373 380
373 402
373 422
373 425
374 375
374 408
374 412
374 433
374 436
375 450
376 377
376 378
376 379
376 405
376 417
376 420
376 421
377 378
377 379
377 389
377 399
377 428
377 429
378 379
378 385
378 423
378 446
378 448
379 475
380 381
380 382
380 383
380 402
380 422
380 425
381 382
381 383
381 418
381 431
381 439
381 441
382 383
382 437
382 442
382 443
382 444
383 467
384 385
384 386
384 420
384 437
384 438
385 386
385 423
385 446
385 448
386 456
387 388
387 389
387 390
387 391
387 402
387 403
387 404
388 389
388 390
388 417
388 418
388 419
389 390
389 399
389 428
389 429
390 461
391 392
391 393
391 394
391 402
391 403
391 404
392 393
392 394
392 396
392 422
392 423
392 424
393 394
393 406
393 426
393 427
394 478
395 396
395 397
395 398
395 399
395 400
395 401
396 397
396 398
396 422
396 423
396 424
397 398
397 403
397 443
397 446
397 447
398 449
399 400
399 401
399 428
399 429
400 401
400 415
400 428
400 442
400 445
401 477
402 403
402 404
402 422
402 425
403 404
403 443
403 446
403 447
404 472
405 406
405 407
405 408
405 409
405 417
405 420
405 421
406 407
406 408
406 409
406 426
406 427
407 408
407 409
407 411
407 430
407 431
407 432
408 409
408 412
408 433
408 436
409 480
410 411
410 412
410 413
410 414
410 415
410 416
411 412
411 413
411 414
411 430
411 431
411 432
412 413
412 414
412 433
412 436
413 414
413 430
413 434
413 439
413 440
414 454
415 416
415 428
415 442
415 445
416 458
417 418
417 419
417 420
417 421
418 419
418 431
418 439
418 441
419 465
420 421
420 437
420 438
421 476
422 423
422 424
422 425
423 424
423 446
423 448
424 455
425 459
426 427
426 433
426 434
426 435
427 466
428 429
428 442
428 445
429 453
430 431
430 432
430 434
430 439
430 440
431 432
431 439
431 441
432 451
433 434
433 435
433 436
434 435
434 439
434 440
435 464
436 468
437 438
437 442
437 443
437 444
438 457
439 440
439 441
440 463
441 473
442 443
442 444
442 445
443 444
443 446
443 447
444 462
445 474
446 447
446 448
447 452
448 479
